(set-logic ALL)
(set-option :produce-models true)
(declare-sort BoundSet 0)
(declare-sort UnboundSet 0)
(declare-fun IsLifted (BoundSet BoundSet) Bool)
(declare-fun IsRaised (BoundSet BoundSet) Bool)
(assert (not (=> (and (exists ((b BoundSet)) (exists ((a BoundSet)) (IsLifted a b))) (and (forall ((c BoundSet)) (forall ((d BoundSet)) (=> (IsLifted c d) (IsRaised c d)))) (forall ((e BoundSet)) (forall ((f BoundSet)) (=> (IsRaised e f) (IsLifted e f)))))) (exists ((b BoundSet)) (exists ((a BoundSet)) (IsRaised a b))))))
(check-sat)
(get-model)